Maximize
  0 x0 + 0 x1 + 0 x2 + 0 x3 + 0 x4 + 42 x5 + 0 x6 + 0 x7 + 0 x8 + 0 x9
   + 0 x10 + 0 x11 + 0 x12 + 0 x13 + 0 x14 + 0 x15 + 11 x16 - 29 x17
   + 12 x18 - 35 x19 + 0 x20 + 0 x21 + 0 x22 + 0 x23 + 0 x24 + 0 x25
   + 0 x26 + 0 x27 + 0 x28 + 0 x29 + 0 x30 + 0 x31 + 0 x32 + 0 x33 + 0 x34
   + 0 x35 + 0 x36 + 0 x37 + 13 x38 - 30 x39 + 0 x40 + 0 x41 + 46 x42
   - 25 x43 + 0 x44 + 0 x45 + 0 x46 + 0 x47 + 0 x48 + 0 x49 + 0 x50 + 0 x51
   + 0 x52 + 45 x53 + 0 x54 + 0 x55 + 0 x56 + 0 x57 + 0 x58 + 0 x59 + 0 x60
   + 28 x61 + 0 x62 + 0 x63 - 4 x64 + 0 x65 + 0 x66 + 0 x67 + 0 x68 + 0 x69
   + 0 x70 + 0 x71 + 0 x72 + 0 x73 + 0 x74 + 0 x75 + 0 x76 + 28 x77
   - 47 x78 + 0 x79 + 0 x80 + 0 x81 + 0 x82 + 0 x83 + 0 x84 + 41 x85
   + 0 x86 + 0 x87 - 40 x88 - 17 x89 + 0 x90 + 0 x91 + 0 x92 + 0 x93
   + 0 x94 + 0 x95 + 0 x96 - 3 x97 - 6 x98 + 0 x99 + [ 28 x0 ^2 - 6 x0 * x2
   + 36 x0 * x3 - 36 x0 * x8 + 2 x0 * x9 + 82 x0 * x14 + 28 x0 * x17
   + 86 x0 * x18 - 30 x0 * x19 + 42 x0 * x27 + 86 x0 * x34 + 8 x0 * x44
   + 76 x0 * x45 - 92 x0 * x47 + 66 x0 * x49 - 44 x0 * x50 + 72 x0 * x55
   - 8 x0 * x61 + 56 x0 * x63 + 44 x0 * x67 + 10 x0 * x73 + 30 x0 * x77
   + 74 x0 * x81 + 72 x0 * x83 - 60 x0 * x91 - 98 x0 * x94 - 26 x0 * x98
   + 80 x1 * x4 + 58 x1 * x11 - 72 x1 * x17 + 74 x1 * x18 + 42 x1 * x21
   - 98 x1 * x22 + 44 x1 * x35 + 44 x1 * x40 + 84 x1 * x46 + 80 x1 * x48
   - 38 x1 * x51 - 38 x1 * x56 + 84 x1 * x60 + 86 x1 * x61 - 8 x1 * x63
   - 8 x1 * x64 + 12 x1 * x68 - 44 x1 * x73 - 66 x1 * x80 + 34 x1 * x83
   + 58 x1 * x84 + 94 x1 * x86 - 84 x1 * x92 - 76 x1 * x96 - 72 x1 * x97
   - 20 x1 * x99 + 4 x2 * x4 - 68 x2 * x18 - 86 x2 * x27 + 76 x2 * x29
   - 34 x2 * x31 + 58 x2 * x35 + 64 x2 * x40 - 22 x2 * x44 - 54 x2 * x49
   - 40 x2 * x70 + 10 x2 * x78 - 78 x2 * x83 - 82 x2 * x84 + 76 x2 * x87
   + 12 x2 * x89 - 34 x2 * x95 - 46 x2 * x97 - 36 x3 * x12 - 14 x3 * x16
   - 94 x3 * x27 + 84 x3 * x30 - 30 x3 * x31 - 62 x3 * x36 - 80 x3 * x37
   + 96 x3 * x38 + 62 x3 * x42 + 36 x3 * x46 + 8 x3 * x53 - 14 x3 * x56
   - 22 x3 * x57 + 72 x3 * x58 + 10 x3 * x59 - 68 x3 * x63 + 86 x3 * x68
   - 64 x3 * x69 + 52 x3 * x74 - 54 x3 * x81 + 70 x3 * x89 - 6 x3 * x90
   - 56 x3 * x91 + 34 x3 * x94 + 16 x3 * x97 - 46 x4 * x7 - 70 x4 * x10
   - 92 x4 * x18 + 72 x4 * x20 - 40 x4 * x28 + 26 x4 * x36 - 48 x4 * x43
   + 8 x4 * x45 + 80 x4 * x48 - 24 x4 * x49 - 96 x4 * x51 + 8 x4 * x54
   - 14 x4 * x55 - 52 x4 * x57 + 2 x4 * x58 - 66 x4 * x59 + 96 x4 * x67
   + 96 x4 * x68 - 18 x4 * x71 - 78 x4 * x75 - 6 x4 * x77 - 52 x4 * x80
   - 74 x4 * x82 + 8 x4 * x87 + 62 x4 * x97 + 50 x4 * x99 - 98 x5 * x16
   - 66 x5 * x17 - 64 x5 * x21 - 32 x5 * x22 - 70 x5 * x25 + 80 x5 * x27
   + 32 x5 * x29 + 78 x5 * x32 + 86 x5 * x36 + 10 x5 * x40 - 30 x5 * x41
   + 44 x5 * x44 - 94 x5 * x46 + 56 x5 * x52 + 52 x5 * x58 - 74 x5 * x60
   - 32 x5 * x62 - 70 x5 * x64 - 32 x5 * x69 + 16 x5 * x71 - 66 x5 * x80
   - 14 x5 * x90 + 82 x5 * x93 - 34 x5 * x98 + 80 x6 * x9 - 56 x6 * x14
   + 80 x6 * x17 - 24 x6 * x26 - 28 x6 * x29 + 8 x6 * x30 - 58 x6 * x31
   + 12 x6 * x36 + 98 x6 * x37 - 78 x6 * x42 - 4 x6 * x43 - 80 x6 * x44
   - 46 x6 * x46 - 26 x6 * x50 - 46 x6 * x59 + 54 x6 * x61 - 22 x6 * x63
   + 50 x6 * x65 + 18 x6 * x67 + 2 x6 * x71 - 38 x6 * x72 - 34 x6 * x79
   + 66 x6 * x89 - 24 x6 * x93 + 36 x6 * x96 + 48 x6 * x98 - 70 x6 * x99
   - 18 x7 * x9 - 60 x7 * x13 + 52 x7 * x16 + 16 x7 * x18 - 20 x7 * x22
   - 64 x7 * x41 - 60 x7 * x43 + 98 x7 * x47 - 28 x7 * x49 - 98 x7 * x52
   + 66 x7 * x56 + 74 x7 * x57 - 38 x7 * x58 - 36 x7 * x64 - 98 x7 * x69
   - 24 x7 * x77 + 84 x7 * x86 - 22 x7 * x90 + 94 x7 * x91 - 64 x7 * x92
   + 6 x7 * x96 + 34 x8 * x10 - 74 x8 * x17 + 62 x8 * x20 - 30 x8 * x21
   + 38 x8 * x22 - 32 x8 * x39 + 66 x8 * x41 + 98 x8 * x42 + 78 x8 * x47
   + 80 x8 * x49 - 56 x8 * x52 + 16 x8 * x64 + 90 x8 * x66 - 22 x8 * x68
   - 50 x8 * x70 - 48 x8 * x72 + 84 x8 * x81 - 90 x8 * x86 - 66 x8 * x94
   + 18 x8 * x95 + 78 x8 * x96 - 2 x9 * x13 - 68 x9 * x23 - 62 x9 * x25
   - 36 x9 * x32 + 76 x9 * x35 + 96 x9 * x37 + 26 x9 * x39 + 56 x9 * x48
   - 44 x9 * x52 + 68 x9 * x69 - 94 x9 * x80 - 68 x9 * x86 - 32 x9 * x99
   - 56 x10 * x11 - 52 x10 * x13 + 72 x10 * x14 + 94 x10 * x17
   + 36 x10 * x23 + 98 x10 * x24 + 6 x10 * x28 + 64 x10 * x29
   + 92 x10 * x36 - 74 x10 * x42 + 62 x10 * x44 - 40 x10 * x46
   - 48 x10 * x47 - 16 x10 * x48 + 26 x10 * x51 + 80 x10 * x57
   - 46 x10 * x68 - 2 x10 * x69 - 98 x10 * x75 - 28 x10 * x76
   - 80 x10 * x81 - 14 x10 * x83 - 62 x10 * x85 + 42 x10 * x86
   + 66 x10 * x89 + 98 x10 * x97 - 80 x10 * x98 - 58 x10 * x99
   + 86 x11 * x14 + 4 x11 * x20 - 8 x11 * x21 + 56 x11 * x29 + 54 x11 * x30
   + 34 x11 * x36 + 36 x11 * x44 - 92 x11 * x58 + 24 x11 * x60
   + 32 x11 * x63 - 62 x11 * x64 - 2 x11 * x65 + 98 x11 * x68
   - 46 x11 * x74 + 4 x11 * x78 - 18 x11 * x80 + 80 x11 * x85
   - 96 x11 * x90 + 64 x11 * x94 + 54 x11 * x98 + 48 x12 * x16
   + 2 x12 * x18 + 96 x12 * x30 - 38 x12 * x34 + 70 x12 * x38
   + 66 x12 * x41 - 70 x12 * x45 - 50 x12 * x50 + 8 x12 * x58
   + 84 x12 * x59 - 16 x12 * x62 + 16 x12 * x63 + 90 x12 * x64
   + 74 x12 * x65 - 8 x12 * x79 + 56 x12 * x80 + 74 x12 * x83
   - 28 x12 * x87 + 46 x12 * x88 + 30 x12 * x89 - 98 x12 * x91
   + 72 x12 * x93 + 84 x12 * x94 - 82 x12 * x96 + 20 x12 * x99
   - 94 x13 * x14 - 78 x13 * x16 - 12 x13 * x17 + 56 x13 * x20
   - 32 x13 * x21 - 22 x13 * x22 - 12 x13 * x25 - 32 x13 * x26
   + 34 x13 * x28 - 54 x13 * x31 - 86 x13 * x33 - 24 x13 * x36
   - 90 x13 * x39 + 2 x13 * x44 - 22 x13 * x47 + 40 x13 * x55
   + 22 x13 * x57 - 28 x13 * x59 - 64 x13 * x64 + 54 x13 * x65
   - 70 x13 * x68 + 98 x13 * x74 - 32 x13 * x79 + 70 x13 * x92
   + 56 x13 * x97 - 16 x13 * x99 + 38 x14 * x15 - 14 x14 * x17
   - 14 x14 * x26 - 64 x14 * x32 + 66 x14 * x35 - 14 x14 * x38
   - 90 x14 * x39 + 62 x14 * x46 - 6 x14 * x48 + 92 x14 * x51
   - 80 x14 * x58 + 16 x14 * x61 - 28 x14 * x67 + 20 x14 * x69
   - 86 x14 * x71 + 12 x14 * x77 + 10 x14 * x86 - 80 x14 * x88
   - 8 x14 * x92 + 22 x14 * x95 - 94 x15 * x20 - 84 x15 * x24
   - 28 x15 * x27 + 16 x15 * x38 - 50 x15 * x41 - 92 x15 * x51
   - 92 x15 * x55 + 16 x15 * x60 + 42 x15 * x65 - 16 x15 * x66
   + 4 x15 * x76 + 4 x15 * x79 - 8 x15 * x83 - 20 x15 * x86 + 38 x15 * x87
   - 14 x16 * x21 - 88 x16 * x22 + 14 x16 * x23 + 72 x16 * x28
   - 96 x16 * x34 + 24 x16 * x43 + 98 x16 * x51 - 28 x16 * x54
   + 28 x16 * x58 + 20 x16 * x62 + 98 x16 * x66 + 34 x16 * x74
   - 66 x16 * x75 - 60 x16 * x81 - 98 x16 * x82 + 68 x16 * x86
   - 16 x17 * x19 - 34 x17 * x23 + 82 x17 * x26 + 70 x17 * x27
   - 4 x17 * x29 - 48 x17 * x32 + 60 x17 * x35 - 48 x17 * x38
   + 22 x17 * x40 + 76 x17 * x47 + 84 x17 * x48 + 12 x17 * x54
   + 80 x17 * x65 + 42 x17 * x66 - 78 x17 * x68 + 44 x17 * x72
   + 36 x17 * x76 - 18 x17 * x85 - 64 x17 * x87 + 44 x17 * x88
   + 58 x17 * x91 + 48 x17 * x92 + 8 x17 * x97 + 56 x18 * x24
   - 18 x18 * x25 + 76 x18 * x29 + 38 x18 * x33 + 42 x18 * x42
   + 52 x18 * x43 + 52 x18 * x44 + 18 x18 * x47 - 98 x18 * x48
   + 60 x18 * x56 - 44 x18 * x58 + 12 x18 * x60 - 98 x18 * x62
   + 18 x18 * x65 + 16 x18 * x68 + 62 x18 * x70 + 16 x18 * x73
   - 12 x18 * x76 - 30 x18 * x77 - 14 x18 * x80 - 66 x18 * x85
   - 42 x18 * x93 - 74 x18 * x94 + 86 x18 * x95 + 40 x18 * x99
   - 22 x19 * x20 + 34 x19 * x21 - 14 x19 * x28 - 84 x19 * x36
   + 88 x19 * x39 - 34 x19 * x41 - 68 x19 * x42 - 86 x19 * x43
   - 84 x19 * x48 + 74 x19 * x49 - 52 x19 * x52 + 18 x19 * x57
   + 64 x19 * x62 + 22 x19 * x65 + 54 x19 * x66 + 22 x19 * x73
   - 26 x19 * x74 - 22 x19 * x75 + 84 x19 * x77 + 28 x19 * x81
   - 54 x19 * x82 + 8 x19 * x84 + 38 x19 * x95 - 50 x19 * x97
   + 66 x20 * x26 + 18 x20 * x31 + 18 x20 * x32 - 46 x20 * x35
   + 66 x20 * x38 + 6 x20 * x41 - 32 x20 * x46 - 50 x20 * x52
   + 52 x20 * x66 - 60 x20 * x77 - 26 x20 * x80 + 48 x20 * x83
   - 54 x20 * x85 + 42 x20 * x86 - 58 x20 * x88 - 16 x20 * x89
   + 6 x20 * x92 - 24 x20 * x97 + 52 x21 * x23 - 92 x21 * x31
   + 88 x21 * x32 + 8 x21 * x39 + 82 x21 * x40 - 90 x21 * x46
   - 88 x21 * x48 - 4 x21 * x57 - 84 x21 * x60 + 14 x21 * x70 + 4 x21 * x71
   + 44 x21 * x76 - 80 x21 * x78 - 50 x21 * x84 - 46 x21 * x85
   + 66 x21 * x88 + 54 x21 * x91 + 80 x21 * x93 + 60 x21 * x94
   - 42 x21 * x95 + 8 x22 * x24 - 66 x22 * x25 + 8 x22 * x30 + 76 x22 * x32
   - 16 x22 * x36 - 56 x22 * x40 + 16 x22 * x44 - 62 x22 * x49
   + 54 x22 * x55 + 10 x22 * x67 + 16 x22 * x69 - 60 x22 * x72
   - 54 x22 * x79 - 88 x22 * x80 + 2 x22 * x82 - 68 x22 * x84
   + 18 x22 * x89 + 62 x22 * x93 + 11 x23 ^2 - 94 x23 * x26 + 14 x23 * x31
   - 16 x23 * x33 - 24 x23 * x35 + 8 x23 * x37 - 82 x23 * x40
   - 76 x23 * x41 + 10 x23 * x42 - 30 x23 * x51 - 62 x23 * x59
   + 32 x23 * x67 + 32 x23 * x68 - 2 x23 * x72 - 92 x23 * x75
   - 50 x23 * x81 - 92 x23 * x82 - 46 x23 * x86 - 78 x23 * x87
   + 10 x23 * x93 + 2 x23 * x94 - 80 x23 * x96 - 19 x24 ^2 + 46 x24 * x28
   - 28 x24 * x29 + 10 x24 * x30 - 38 x24 * x33 - 98 x24 * x37
   - 48 x24 * x46 + 94 x24 * x47 - 92 x24 * x60 - 54 x24 * x66
   + 44 x24 * x70 + 44 x24 * x72 + 52 x24 * x73 + 2 x24 * x75
   + 24 x24 * x80 + 64 x24 * x81 - 8 x24 * x91 + 94 x24 * x92 + 2 x24 * x98
   + 86 x25 * x27 + 96 x25 * x32 + 10 x25 * x40 - 30 x25 * x46
   + 24 x25 * x48 - 78 x25 * x56 - 94 x25 * x62 + 92 x25 * x71
   + 38 x25 * x74 - 84 x25 * x81 - 22 x25 * x85 - 4 x25 * x88
   + 60 x25 * x90 - 24 x25 * x93 + 6 x25 * x94 + 8 x25 * x95 - 88 x25 * x96
   + 58 x25 * x97 - 16 x25 * x99 - 22 x26 ^2 - 48 x26 * x27 + 60 x26 * x34
   + 94 x26 * x37 + 80 x26 * x41 + 28 x26 * x45 + 82 x26 * x48
   + 80 x26 * x50 + 74 x26 * x54 + 40 x26 * x59 - 50 x26 * x66
   + 76 x26 * x72 - 68 x26 * x89 - 7 x27 ^2 - 72 x27 * x29 - 24 x27 * x33
   - 14 x27 * x38 - 66 x27 * x42 - 90 x27 * x49 + 62 x27 * x50
   - 92 x27 * x51 + 16 x27 * x52 + 82 x27 * x60 + 2 x27 * x66
   + 90 x27 * x68 - 58 x27 * x69 + 50 x27 * x70 + 54 x27 * x75
   - 26 x27 * x78 + 14 x27 * x80 - 70 x27 * x88 + 94 x27 * x95
   + 32 x27 * x97 - 30 x27 * x98 - 6 x27 * x99 + 2 x28 * x30 + 94 x28 * x31
   + 76 x28 * x32 + 16 x28 * x33 - 12 x28 * x43 + 48 x28 * x44
   - 6 x28 * x45 + 88 x28 * x51 + 20 x28 * x55 + 28 x28 * x59
   - 80 x28 * x74 + 66 x28 * x77 - 80 x28 * x94 + 50 x28 * x96
   + 92 x29 * x31 + 40 x29 * x38 - 80 x29 * x43 - 68 x29 * x47
   - 38 x29 * x53 + 74 x29 * x55 + 88 x29 * x58 + 80 x29 * x61
   - 26 x29 * x68 + 42 x29 * x77 - 60 x29 * x84 - 50 x29 * x85
   - 14 x29 * x88 + 44 x29 * x89 - 26 x29 * x93 + 14 x30 * x42
   - 32 x30 * x43 + 82 x30 * x44 + 70 x30 * x46 + 64 x30 * x53
   - 68 x30 * x66 + 58 x30 * x68 + 28 x30 * x69 - 10 x30 * x70
   - 20 x30 * x78 - 34 x30 * x81 - 70 x30 * x82 + 68 x30 * x96
   - 54 x30 * x98 - 74 x30 * x99 - 80 x31 * x33 - 54 x31 * x34
   - 60 x31 * x36 + 18 x31 * x40 + 94 x31 * x45 - 46 x31 * x50
   - 78 x31 * x54 + 56 x31 * x59 - 14 x31 * x62 - 14 x31 * x63
   - 10 x31 * x64 - 18 x31 * x68 + 30 x31 * x70 - 16 x31 * x72
   + 24 x31 * x89 + 32 x31 * x98 - 40 x32 ^2 + 54 x32 * x38 + 8 x32 * x43
   - 78 x32 * x44 - 54 x32 * x49 + 26 x32 * x60 + 28 x32 * x64
   + 28 x32 * x65 - 96 x32 * x66 - 8 x32 * x67 + 66 x32 * x68
   - 46 x32 * x73 - 36 x32 * x80 + 72 x32 * x93 - 54 x32 * x96
   - 26 x32 * x98 - 6 x33 * x35 - 84 x33 * x37 - 30 x33 * x50
   + 30 x33 * x62 + 46 x33 * x64 - 8 x33 * x67 + 30 x33 * x77
   - 88 x33 * x79 + 68 x33 * x80 - 4 x33 * x81 - 48 x33 * x82
   - 44 x33 * x85 - 86 x33 * x86 + 28 x33 * x90 + 68 x33 * x91
   - 8 x34 * x39 - 58 x34 * x44 + 86 x34 * x45 + 10 x34 * x47
   - 78 x34 * x54 + 78 x34 * x60 + 92 x34 * x67 - 88 x34 * x71
   - 26 x34 * x73 - 38 x34 * x75 + 12 x34 * x76 + 32 x34 * x79
   - 82 x34 * x82 + 56 x34 * x86 - 6 x34 * x93 - 54 x34 * x99 - 46 x35 ^2
   + 72 x35 * x40 + 6 x35 * x42 - 82 x35 * x44 + 52 x35 * x50
   - 36 x35 * x52 + 46 x35 * x53 - 88 x35 * x61 - 18 x35 * x64
   + 66 x35 * x71 + 54 x35 * x73 + 58 x35 * x76 + 30 x35 * x81
   - 68 x35 * x83 - 28 x35 * x85 + 20 x35 * x86 + 64 x35 * x89
   - 24 x35 * x94 - 62 x35 * x95 + 45 x36 ^2 + 54 x36 * x41 - 82 x36 * x48
   + 60 x36 * x54 - 6 x36 * x56 - 18 x36 * x63 + 20 x36 * x65
   - 66 x36 * x68 - 8 x36 * x82 + 78 x36 * x88 + 46 x36 * x89
   + 92 x36 * x95 - 34 x36 * x98 + 76 x37 * x41 - 48 x37 * x45
   + 50 x37 * x55 + 54 x37 * x57 + 74 x37 * x58 + 26 x37 * x64
   + 10 x37 * x71 + 8 x37 * x79 - 98 x37 * x80 + 82 x37 * x83
   + 30 x37 * x84 - 44 x37 * x93 - 56 x37 * x95 - 30 x37 * x96 - 32 x38 ^2
   + 92 x38 * x45 + 2 x38 * x46 + 50 x38 * x51 - 60 x38 * x53
   - 44 x38 * x57 - 92 x38 * x58 - 10 x38 * x61 + 90 x38 * x64
   - 36 x38 * x66 + 20 x38 * x68 - 34 x38 * x70 - 76 x38 * x75
   + 22 x38 * x81 - 20 x38 * x82 + 80 x38 * x96 + 46 x39 * x40
   + 12 x39 * x41 - 68 x39 * x42 - 20 x39 * x43 - 54 x39 * x49
   + 74 x39 * x50 - 14 x39 * x63 + 34 x39 * x64 - 34 x39 * x65
   - 34 x39 * x66 + 68 x39 * x74 - 90 x39 * x77 - 28 x39 * x95
   + 54 x39 * x97 + 44 x40 * x45 - 2 x40 * x49 + 40 x40 * x50
   - 58 x40 * x58 + 92 x40 * x59 + 26 x40 * x64 - 56 x40 * x67
   - 22 x40 * x69 - 24 x40 * x71 + 40 x40 * x77 + 34 x40 * x78
   + 14 x40 * x88 + 60 x40 * x93 - 56 x40 * x94 + 38 x40 * x95
   + 84 x40 * x96 - 4 x41 * x42 - 50 x41 * x44 - 60 x41 * x52
   - 24 x41 * x53 - 64 x41 * x59 - 46 x41 * x62 - 70 x41 * x65
   + 36 x41 * x72 - 18 x41 * x78 + 36 x41 * x80 + 30 x41 * x89
   + 64 x41 * x92 - 40 x41 * x99 - 52 x42 * x45 + 94 x42 * x55
   - 78 x42 * x60 - 62 x42 * x71 + 80 x42 * x72 - 10 x42 * x74
   + 36 x42 * x76 + 28 x42 * x79 - 6 x42 * x88 - 92 x42 * x89
   + 38 x42 * x90 - 22 x42 * x93 + 88 x43 * x46 + 56 x43 * x48
   + 56 x43 * x66 + 68 x43 * x70 - 92 x43 * x72 + 30 x43 * x76
   - 42 x43 * x77 + 82 x43 * x79 + 78 x43 * x93 - 28 x44 * x46
   - 56 x44 * x48 + 20 x44 * x49 - 52 x44 * x56 - 72 x44 * x57
   + 88 x44 * x58 + 54 x44 * x70 - 20 x44 * x78 + 78 x44 * x87
   + 20 x44 * x88 + 28 x44 * x90 - 86 x44 * x91 + 54 x44 * x97
   + 58 x44 * x98 - 38 x44 * x99 - 24 x45 * x47 + 72 x45 * x48
   - 52 x45 * x50 - 26 x45 * x54 - 34 x45 * x55 - 46 x45 * x57
   - 4 x45 * x58 + 46 x45 * x59 + 56 x45 * x60 + 40 x45 * x62
   - 80 x45 * x70 + 46 x45 * x75 + 24 x45 * x80 + 80 x45 * x81
   - 98 x45 * x83 + 46 x45 * x84 + 86 x45 * x88 + 28 x45 * x91
   + 76 x45 * x92 + 98 x45 * x94 - 28 x45 * x95 + 82 x45 * x97
   - 56 x45 * x99 + 10 x46 ^2 - 86 x46 * x52 + 52 x46 * x59 - 80 x46 * x60
   - 62 x46 * x62 + 16 x46 * x67 + 36 x46 * x71 + 60 x46 * x73
   + 86 x46 * x83 - 20 x46 * x84 - 40 x46 * x96 - 56 x46 * x98
   - 8 x47 * x51 - 38 x47 * x58 - 90 x47 * x64 - 60 x47 * x66
   - 84 x47 * x67 - 30 x47 * x75 + 44 x47 * x81 - 70 x47 * x89
   - 54 x47 * x90 - 74 x47 * x97 + 66 x47 * x99 - 20 x48 * x49
   - 58 x48 * x52 + 68 x48 * x53 - 38 x48 * x54 + 96 x48 * x55
   - 64 x48 * x57 - 38 x48 * x62 - 40 x48 * x67 - 36 x48 * x80
   + 86 x48 * x84 - 38 x48 * x87 + 78 x48 * x88 - 36 x48 * x89 + 22 x49 ^2
   - 28 x49 * x58 - 84 x49 * x60 - 96 x49 * x63 + 80 x49 * x64
   - 20 x49 * x69 + 46 x49 * x76 - 80 x49 * x77 + 46 x49 * x78
   - 82 x49 * x79 - 6 x49 * x81 - 70 x49 * x82 - 94 x49 * x83
   + 14 x49 * x84 - 86 x49 * x85 - 96 x49 * x87 + 70 x49 * x92
   + 80 x49 * x93 + 3 x50 ^2 - 46 x50 * x51 + 86 x50 * x52 - 12 x50 * x58
   + 98 x50 * x59 - 30 x50 * x60 + 48 x50 * x61 - 76 x50 * x66
   + 34 x50 * x69 - 80 x50 * x72 + 28 x50 * x74 - 78 x50 * x81
   + 4 x50 * x83 - 22 x50 * x85 - 86 x50 * x87 - 96 x50 * x92
   + 64 x50 * x96 - 52 x51 * x52 - 30 x51 * x63 + 50 x51 * x68
   - 96 x51 * x74 - 48 x51 * x76 - 84 x51 * x80 + 46 x51 * x86
   - 4 x51 * x88 - 10 x51 * x89 - 6 x51 * x90 - 8 x51 * x91 - 80 x51 * x95
   + 82 x52 * x53 + 4 x52 * x60 - 30 x52 * x63 - 98 x52 * x65
   + 64 x52 * x66 + 92 x52 * x70 - 28 x52 * x75 - 86 x52 * x79
   - 52 x52 * x85 - 60 x52 * x86 + 36 x52 * x92 + 22 x53 ^2 - 26 x53 * x54
   + 44 x53 * x59 + 2 x53 * x64 - 82 x53 * x65 - 78 x53 * x71
   - 26 x53 * x72 + 52 x53 * x73 - 94 x53 * x76 - 34 x53 * x80
   + 62 x53 * x82 - 8 x53 * x87 + 88 x53 * x88 + 72 x53 * x96 + 47 x54 ^2
   - 62 x54 * x57 + 86 x54 * x58 + 86 x54 * x62 - 86 x54 * x69
   - 58 x54 * x73 + 92 x54 * x74 + 50 x54 * x78 + 78 x54 * x83
   - 30 x54 * x87 + 60 x54 * x89 - 26 x54 * x91 - 82 x54 * x94
   - 34 x54 * x95 + 16 x55 * x56 - 88 x55 * x62 + 18 x55 * x64
   + 72 x55 * x72 - 72 x55 * x73 + 24 x55 * x79 + 84 x55 * x84
   - 14 x55 * x92 - 92 x55 * x93 - 64 x55 * x94 + 8 x56 * x58
   - 20 x56 * x66 - 50 x56 * x67 - 84 x56 * x71 - 34 x56 * x73
   + 2 x56 * x78 - 50 x56 * x81 + 12 x56 * x83 - 4 x56 * x87 + 52 x56 * x89
   - 60 x56 * x92 - 80 x56 * x96 + 62 x57 * x59 + 24 x57 * x63
   + 8 x57 * x64 - 64 x57 * x68 + 14 x57 * x72 + 98 x57 * x73
   - 92 x57 * x76 - 20 x57 * x80 - 96 x57 * x83 + 86 x57 * x84
   - 42 x57 * x85 - 20 x57 * x87 - 24 x57 * x88 + 54 x57 * x89
   + 46 x57 * x93 + 40 x57 * x94 - 70 x57 * x95 - 36 x57 * x97
   + 58 x58 * x65 + 16 x58 * x66 - 44 x58 * x68 + 24 x58 * x69
   - 96 x58 * x76 - 30 x58 * x85 + 64 x58 * x89 + 40 x58 * x96
   - 88 x58 * x99 - 45 x59 ^2 + 60 x59 * x63 - 30 x59 * x72 - 44 x59 * x74
   - 18 x59 * x75 - 48 x59 * x79 - 16 x59 * x82 - 8 x59 * x87
   + 38 x59 * x93 - 6 x59 * x95 + 26 x59 * x98 + 94 x60 * x80
   + 30 x60 * x87 + 94 x60 * x91 - 46 x60 * x95 - 76 x60 * x98
   + 20 x61 * x62 - 94 x61 * x65 - 20 x61 * x75 - 80 x61 * x76
   + 22 x61 * x87 - 38 x61 * x94 + 56 x61 * x96 + 38 x62 ^2 + 20 x62 * x70
   - 70 x62 * x71 - 12 x62 * x76 - 10 x62 * x77 + 44 x62 * x90
   + 16 x62 * x93 - 96 x62 * x96 + 52 x62 * x98 + 34 x62 * x99
   + 2 x63 * x68 + 86 x63 * x69 + 30 x63 * x70 + 8 x63 * x75 + 42 x63 * x82
   - 86 x63 * x86 + 68 x63 * x90 - 56 x63 * x91 + 62 x63 * x92
   + 58 x63 * x95 + 24 x63 * x99 - 52 x64 * x66 + 84 x64 * x71
   - 10 x64 * x75 + 98 x64 * x82 - 4 x64 * x91 + 74 x64 * x97
   + 68 x64 * x99 - 74 x65 * x74 + 80 x65 * x84 + 12 x65 * x91
   + 12 x65 * x93 + 88 x65 * x95 - 3 x66 ^2 + 56 x66 * x69 + 46 x66 * x71
   - 84 x66 * x73 + 56 x66 * x79 - 10 x66 * x85 + 6 x66 * x86
   - 36 x66 * x93 + 14 x67 * x68 - 40 x67 * x70 + 28 x67 * x74
   - 82 x67 * x80 - 50 x67 * x82 - 64 x67 * x84 + 4 x67 * x89 - x68 ^2
   + 14 x68 * x70 - 80 x68 * x80 + 92 x68 * x85 + 90 x68 * x86
   - 92 x68 * x88 + 32 x68 * x90 - 28 x68 * x97 - 64 x69 * x71
   + 2 x69 * x78 + 46 x69 * x79 - 78 x69 * x80 + 20 x69 * x81
   + 78 x69 * x84 - 96 x69 * x86 + 68 x69 * x87 - 56 x69 * x90
   + 20 x69 * x92 - 88 x69 * x95 + 70 x69 * x98 - 42 x70 * x72
   - 40 x70 * x73 - 12 x70 * x74 + 76 x70 * x78 + 10 x70 * x82
   - 92 x70 * x88 + 94 x70 * x94 - 43 x71 ^2 - 84 x71 * x75 - 52 x71 * x78
   + 78 x71 * x82 - 34 x71 * x83 + 32 x71 * x85 - 76 x71 * x89
   - 56 x71 * x90 - 36 x71 * x93 + 52 x71 * x99 + 14 x72 * x75
   - 50 x72 * x76 + 80 x72 * x95 + 64 x72 * x96 + 88 x72 * x98
   - 32 x73 * x74 - 32 x73 * x76 + 28 x73 * x77 - 50 x73 * x89
   - 76 x73 * x99 - 90 x74 * x76 + 28 x74 * x79 + 86 x74 * x88
   - 70 x75 * x78 + 16 x75 * x86 + 22 x75 * x90 - 80 x75 * x92
   - 74 x76 * x81 + 56 x76 * x83 + 16 x76 * x85 - 30 x76 * x91
   - 52 x76 * x96 - 56 x76 * x98 - 22 x76 * x99 + 40 x77 * x78
   + 94 x77 * x79 - 2 x77 * x82 - 38 x77 * x84 + 18 x77 * x93
   + 46 x77 * x96 + 94 x78 * x79 + 82 x78 * x81 - 82 x78 * x85
   - 38 x78 * x90 - 72 x78 * x97 - 44 x78 * x99 - 10 x79 ^2 - 64 x79 * x82
   - 16 x79 * x87 - 58 x79 * x88 - 28 x79 * x89 - 60 x79 * x95
   + 44 x79 * x99 - 45 x80 ^2 - 68 x80 * x83 + 90 x80 * x84 + 44 x80 * x95
   + 98 x80 * x98 + 94 x80 * x99 - 30 x81 ^2 + 56 x81 * x95 + 32 x81 * x97
   - 22 x82 ^2 + 40 x82 * x83 - 92 x82 * x86 - 16 x82 * x88 + 68 x82 * x95
   + 4 x83 ^2 + 52 x83 * x84 - 62 x83 * x89 - 86 x83 * x90 + 20 x84 * x85
   - 20 x84 * x86 - 12 x84 * x90 - 60 x84 * x98 - 18 x85 * x86
   + 60 x85 * x90 + 94 x85 * x93 - 82 x85 * x95 + 62 x85 * x96
   - 78 x85 * x99 + 19 x86 ^2 - 98 x86 * x92 - 44 x86 * x99 + 16 x87 ^2
   + 44 x87 * x91 + 2 x87 * x93 + 26 x87 * x98 - 16 x88 * x90
   + 54 x88 * x91 + 2 x88 * x92 + 44 x88 * x97 + 72 x88 * x99
   - 12 x89 * x96 - 52 x90 * x93 + 12 x90 * x94 + 70 x90 * x96 - 30 x91 ^2
   - 46 x91 * x94 + 90 x91 * x96 + 32 x92 ^2 + 96 x92 * x94 + 6 x92 * x97
   - 12 x93 * x96 + 44 x94 * x96 + 22 x94 * x99 + 22 x95 * x97
   - 20 x96 * x98 + 70 x96 * x99 + 92 x97 * x98 ] / 2 
Subject To
Bounds
 x0 <= 1
 x1 <= 1
 x2 <= 1
 x3 <= 1
 x4 <= 1
 x5 <= 1
 x6 <= 1
 x7 <= 1
 x8 <= 1
 x9 <= 1
 x10 <= 1
 x11 <= 1
 x12 <= 1
 x13 <= 1
 x14 <= 1
 x15 <= 1
 x16 <= 1
 x17 <= 1
 x18 <= 1
 x19 <= 1
 x20 <= 1
 x21 <= 1
 x22 <= 1
 x23 <= 1
 x24 <= 1
 x25 <= 1
 x26 <= 1
 x27 <= 1
 x28 <= 1
 x29 <= 1
 x30 <= 1
 x31 <= 1
 x32 <= 1
 x33 <= 1
 x34 <= 1
 x35 <= 1
 x36 <= 1
 x37 <= 1
 x38 <= 1
 x39 <= 1
 x40 <= 1
 x41 <= 1
 x42 <= 1
 x43 <= 1
 x44 <= 1
 x45 <= 1
 x46 <= 1
 x47 <= 1
 x48 <= 1
 x49 <= 1
 x50 <= 1
 x51 <= 1
 x52 <= 1
 x53 <= 1
 x54 <= 1
 x55 <= 1
 x56 <= 1
 x57 <= 1
 x58 <= 1
 x59 <= 1
 x60 <= 1
 x61 <= 1
 x62 <= 1
 x63 <= 1
 x64 <= 1
 x65 <= 1
 x66 <= 1
 x67 <= 1
 x68 <= 1
 x69 <= 1
 x70 <= 1
 x71 <= 1
 x72 <= 1
 x73 <= 1
 x74 <= 1
 x75 <= 1
 x76 <= 1
 x77 <= 1
 x78 <= 1
 x79 <= 1
 x80 <= 1
 x81 <= 1
 x82 <= 1
 x83 <= 1
 x84 <= 1
 x85 <= 1
 x86 <= 1
 x87 <= 1
 x88 <= 1
 x89 <= 1
 x90 <= 1
 x91 <= 1
 x92 <= 1
 x93 <= 1
 x94 <= 1
 x95 <= 1
 x96 <= 1
 x97 <= 1
 x98 <= 1
 x99 <= 1
End
